
Gurobi 9.1.2 (win64) logging started Mon Dec  6 13:48:58 2021

Gurobi Optimizer version 9.1.2 build v9.1.2rc0 (win64)
Thread count: 8 physical cores, 8 logical processors, using up to 8 threads
Optimize a model with 1 rows, 21 columns and 20 nonzeros
Model fingerprint: 0x85161cf9
Variable types: 1 continuous, 20 integer (20 binary)
Coefficient statistics:
  Matrix range     [1e+00, 1e+01]
  Objective range  [1e+00, 1e+00]
  Bounds range     [1e+01, 1e+01]
  RHS range        [1e+01, 1e+01]
Presolve time: 0.00s
Presolved: 1 rows, 21 columns, 20 nonzeros
Variable types: 1 continuous, 20 integer (20 binary)

Root simplex log...

Iteration    Objective       Primal Inf.    Dual Inf.      Time
       0   -1.1341687e+01   9.331745e-02   0.000000e+00     15s
       2   -1.1341687e+01   0.000000e+00   0.000000e+00     15s

Root relaxation: objective -1.134169e+01, 2 iterations, 0.00 seconds

    Nodes    |    Current Node    |     Objective Bounds      |     Work
 Expl Unexpl |  Obj  Depth IntInf | Incumbent    BestBd   Gap | It/Node Time

*    0     0               0     -11.3416867  -11.34169  0.00%     -   14s

Cutting planes:
  Lazy constraints: 4

Explored 0 nodes (6 simplex iterations) in 14.67 seconds
Thread count was 8 (of 8 available processors)

Solution count 1: -11.3417 
No other solutions better than -11.3417

Optimal solution found (tolerance 1.00e-04)
Best objective -1.134168667287e+01, best bound -1.134168667287e+01, gap 0.0000%

User-callback calls 79, time in user-callback 18.36 sec
